Minimize
 obj: 0 X_0_1
Subject To
 out_0:
  + 1 X_0_1 + 1 X_0_2 + 1 X_0_3 + 1 X_0_4 + 1 X_0_5 + 1 X_0_6 + 1 X_0_7 + 1 X_0_8
  + 1 X_0_9
  = 1
 in_0:
  + 1 X_1_0 + 1 X_2_0 + 1 X_3_0 + 1 X_4_0 + 1 X_5_0 + 1 X_6_0 + 1 X_7_0 + 1 X_8_0
  + 1 X_9_0
  = 1
 out_1:
  + 1 X_1_0 + 1 X_1_2 + 1 X_1_3 + 1 X_1_4 + 1 X_1_5 + 1 X_1_6 + 1 X_1_7 + 1 X_1_8
  + 1 X_1_9
  = 1
 in_1:
  + 1 X_0_1 + 1 X_2_1 + 1 X_3_1 + 1 X_4_1 + 1 X_5_1 + 1 X_6_1 + 1 X_7_1 + 1 X_8_1
  + 1 X_9_1
  = 1
 out_2:
  + 1 X_2_0 + 1 X_2_1 + 1 X_2_3 + 1 X_2_4 + 1 X_2_5 + 1 X_2_6 + 1 X_2_7 + 1 X_2_8
  + 1 X_2_9
  = 1
 in_2:
  + 1 X_0_2 + 1 X_1_2 + 1 X_3_2 + 1 X_4_2 + 1 X_5_2 + 1 X_6_2 + 1 X_7_2 + 1 X_8_2
  + 1 X_9_2
  = 1
 out_3:
  + 1 X_3_0 + 1 X_3_1 + 1 X_3_2 + 1 X_3_4 + 1 X_3_5 + 1 X_3_6 + 1 X_3_7 + 1 X_3_8
  + 1 X_3_9
  = 1
 in_3:
  + 1 X_0_3 + 1 X_1_3 + 1 X_2_3 + 1 X_4_3 + 1 X_5_3 + 1 X_6_3 + 1 X_7_3 + 1 X_8_3
  + 1 X_9_3
  = 1
 out_4:
  + 1 X_4_0 + 1 X_4_1 + 1 X_4_2 + 1 X_4_3 + 1 X_4_5 + 1 X_4_6 + 1 X_4_7 + 1 X_4_8
  + 1 X_4_9
  = 1
 in_4:
  + 1 X_0_4 + 1 X_1_4 + 1 X_2_4 + 1 X_3_4 + 1 X_5_4 + 1 X_6_4 + 1 X_7_4 + 1 X_8_4
  + 1 X_9_4
  = 1
 out_5:
  + 1 X_5_0 + 1 X_5_1 + 1 X_5_2 + 1 X_5_3 + 1 X_5_4 + 1 X_5_6 + 1 X_5_7 + 1 X_5_8
  + 1 X_5_9
  = 1
 in_5:
  + 1 X_0_5 + 1 X_1_5 + 1 X_2_5 + 1 X_3_5 + 1 X_4_5 + 1 X_6_5 + 1 X_7_5 + 1 X_8_5
  + 1 X_9_5
  = 1
 out_6:
  + 1 X_6_0 + 1 X_6_1 + 1 X_6_2 + 1 X_6_3 + 1 X_6_4 + 1 X_6_5 + 1 X_6_7 + 1 X_6_8
  + 1 X_6_9
  = 1
 in_6:
  + 1 X_0_6 + 1 X_1_6 + 1 X_2_6 + 1 X_3_6 + 1 X_4_6 + 1 X_5_6 + 1 X_7_6 + 1 X_8_6
  + 1 X_9_6
  = 1
 out_7:
  + 1 X_7_0 + 1 X_7_1 + 1 X_7_2 + 1 X_7_3 + 1 X_7_4 + 1 X_7_5 + 1 X_7_6 + 1 X_7_8
  + 1 X_7_9
  = 1
 in_7:
  + 1 X_0_7 + 1 X_1_7 + 1 X_2_7 + 1 X_3_7 + 1 X_4_7 + 1 X_5_7 + 1 X_6_7 + 1 X_8_7
  + 1 X_9_7
  = 1
 out_8:
  + 1 X_8_0 + 1 X_8_1 + 1 X_8_2 + 1 X_8_3 + 1 X_8_4 + 1 X_8_5 + 1 X_8_6 + 1 X_8_7
  + 1 X_8_9
  = 1
 in_8:
  + 1 X_0_8 + 1 X_1_8 + 1 X_2_8 + 1 X_3_8 + 1 X_4_8 + 1 X_5_8 + 1 X_6_8 + 1 X_7_8
  + 1 X_9_8
  = 1
 out_9:
  + 1 X_9_0 + 1 X_9_1 + 1 X_9_2 + 1 X_9_3 + 1 X_9_4 + 1 X_9_5 + 1 X_9_6 + 1 X_9_7
  + 1 X_9_8
  = 1
 in_9:
  + 1 X_0_9 + 1 X_1_9 + 1 X_2_9 + 1 X_3_9 + 1 X_4_9 + 1 X_5_9 + 1 X_6_9 + 1 X_7_9
  + 1 X_8_9
  = 1
 mtz_1_2:
  + 1 U1 - 1 U2 + 9 X_1_2
  <= 8
 mtz_1_3:
  + 1 U1 - 1 U3 + 9 X_1_3
  <= 8
 mtz_1_4:
  + 1 U1 - 1 U4 + 9 X_1_4
  <= 8
 mtz_1_5:
  + 1 U1 - 1 U5 + 9 X_1_5
  <= 8
 mtz_1_6:
  + 1 U1 - 1 U6 + 9 X_1_6
  <= 8
 mtz_1_7:
  + 1 U1 - 1 U7 + 9 X_1_7
  <= 8
 mtz_1_8:
  + 1 U1 - 1 U8 + 9 X_1_8
  <= 8
 mtz_1_9:
  + 1 U1 - 1 U9 + 9 X_1_9
  <= 8
 mtz_2_1:
  + 1 U2 - 1 U1 + 9 X_2_1
  <= 8
 mtz_2_3:
  + 1 U2 - 1 U3 + 9 X_2_3
  <= 8
 mtz_2_4:
  + 1 U2 - 1 U4 + 9 X_2_4
  <= 8
 mtz_2_5:
  + 1 U2 - 1 U5 + 9 X_2_5
  <= 8
 mtz_2_6:
  + 1 U2 - 1 U6 + 9 X_2_6
  <= 8
 mtz_2_7:
  + 1 U2 - 1 U7 + 9 X_2_7
  <= 8
 mtz_2_8:
  + 1 U2 - 1 U8 + 9 X_2_8
  <= 8
 mtz_2_9:
  + 1 U2 - 1 U9 + 9 X_2_9
  <= 8
 mtz_3_1:
  + 1 U3 - 1 U1 + 9 X_3_1
  <= 8
 mtz_3_2:
  + 1 U3 - 1 U2 + 9 X_3_2
  <= 8
 mtz_3_4:
  + 1 U3 - 1 U4 + 9 X_3_4
  <= 8
 mtz_3_5:
  + 1 U3 - 1 U5 + 9 X_3_5
  <= 8
 mtz_3_6:
  + 1 U3 - 1 U6 + 9 X_3_6
  <= 8
 mtz_3_7:
  + 1 U3 - 1 U7 + 9 X_3_7
  <= 8
 mtz_3_8:
  + 1 U3 - 1 U8 + 9 X_3_8
  <= 8
 mtz_3_9:
  + 1 U3 - 1 U9 + 9 X_3_9
  <= 8
 mtz_4_1:
  + 1 U4 - 1 U1 + 9 X_4_1
  <= 8
 mtz_4_2:
  + 1 U4 - 1 U2 + 9 X_4_2
  <= 8
 mtz_4_3:
  + 1 U4 - 1 U3 + 9 X_4_3
  <= 8
 mtz_4_5:
  + 1 U4 - 1 U5 + 9 X_4_5
  <= 8
 mtz_4_6:
  + 1 U4 - 1 U6 + 9 X_4_6
  <= 8
 mtz_4_7:
  + 1 U4 - 1 U7 + 9 X_4_7
  <= 8
 mtz_4_8:
  + 1 U4 - 1 U8 + 9 X_4_8
  <= 8
 mtz_4_9:
  + 1 U4 - 1 U9 + 9 X_4_9
  <= 8
 mtz_5_1:
  + 1 U5 - 1 U1 + 9 X_5_1
  <= 8
 mtz_5_2:
  + 1 U5 - 1 U2 + 9 X_5_2
  <= 8
 mtz_5_3:
  + 1 U5 - 1 U3 + 9 X_5_3
  <= 8
 mtz_5_4:
  + 1 U5 - 1 U4 + 9 X_5_4
  <= 8
 mtz_5_6:
  + 1 U5 - 1 U6 + 9 X_5_6
  <= 8
 mtz_5_7:
  + 1 U5 - 1 U7 + 9 X_5_7
  <= 8
 mtz_5_8:
  + 1 U5 - 1 U8 + 9 X_5_8
  <= 8
 mtz_5_9:
  + 1 U5 - 1 U9 + 9 X_5_9
  <= 8
 mtz_6_1:
  + 1 U6 - 1 U1 + 9 X_6_1
  <= 8
 mtz_6_2:
  + 1 U6 - 1 U2 + 9 X_6_2
  <= 8
 mtz_6_3:
  + 1 U6 - 1 U3 + 9 X_6_3
  <= 8
 mtz_6_4:
  + 1 U6 - 1 U4 + 9 X_6_4
  <= 8
 mtz_6_5:
  + 1 U6 - 1 U5 + 9 X_6_5
  <= 8
 mtz_6_7:
  + 1 U6 - 1 U7 + 9 X_6_7
  <= 8
 mtz_6_8:
  + 1 U6 - 1 U8 + 9 X_6_8
  <= 8
 mtz_6_9:
  + 1 U6 - 1 U9 + 9 X_6_9
  <= 8
 mtz_7_1:
  + 1 U7 - 1 U1 + 9 X_7_1
  <= 8
 mtz_7_2:
  + 1 U7 - 1 U2 + 9 X_7_2
  <= 8
 mtz_7_3:
  + 1 U7 - 1 U3 + 9 X_7_3
  <= 8
 mtz_7_4:
  + 1 U7 - 1 U4 + 9 X_7_4
  <= 8
 mtz_7_5:
  + 1 U7 - 1 U5 + 9 X_7_5
  <= 8
 mtz_7_6:
  + 1 U7 - 1 U6 + 9 X_7_6
  <= 8
 mtz_7_8:
  + 1 U7 - 1 U8 + 9 X_7_8
  <= 8
 mtz_7_9:
  + 1 U7 - 1 U9 + 9 X_7_9
  <= 8
 mtz_8_1:
  + 1 U8 - 1 U1 + 9 X_8_1
  <= 8
 mtz_8_2:
  + 1 U8 - 1 U2 + 9 X_8_2
  <= 8
 mtz_8_3:
  + 1 U8 - 1 U3 + 9 X_8_3
  <= 8
 mtz_8_4:
  + 1 U8 - 1 U4 + 9 X_8_4
  <= 8
 mtz_8_5:
  + 1 U8 - 1 U5 + 9 X_8_5
  <= 8
 mtz_8_6:
  + 1 U8 - 1 U6 + 9 X_8_6
  <= 8
 mtz_8_7:
  + 1 U8 - 1 U7 + 9 X_8_7
  <= 8
 mtz_8_9:
  + 1 U8 - 1 U9 + 9 X_8_9
  <= 8
 mtz_9_1:
  + 1 U9 - 1 U1 + 9 X_9_1
  <= 8
 mtz_9_2:
  + 1 U9 - 1 U2 + 9 X_9_2
  <= 8
 mtz_9_3:
  + 1 U9 - 1 U3 + 9 X_9_3
  <= 8
 mtz_9_4:
  + 1 U9 - 1 U4 + 9 X_9_4
  <= 8
 mtz_9_5:
  + 1 U9 - 1 U5 + 9 X_9_5
  <= 8
 mtz_9_6:
  + 1 U9 - 1 U6 + 9 X_9_6
  <= 8
 mtz_9_7:
  + 1 U9 - 1 U7 + 9 X_9_7
  <= 8
 mtz_9_8:
  + 1 U9 - 1 U8 + 9 X_9_8
  <= 8
 obj1:
  + 489 X_0_1 + 875 X_0_2 + 346 X_0_3 + 343 X_0_4 + 468 X_0_5 + 871 X_0_6 + 857 X_0_7 + 736 X_0_8
  + 725 X_0_9 + 489 X_1_0 + 799 X_1_2 + 461 X_1_3 + 324 X_1_4 + 202 X_1_5 + 794 X_1_6 + 391 X_1_7
  + 389 X_1_8 + 445 X_1_9 + 875 X_2_0 + 799 X_2_1 + 528 X_2_3 + 576 X_2_4 + 984 X_2_5 + 5 X_2_6
  + 766 X_2_7 + 509 X_2_8 + 410 X_2_9 + 346 X_3_0 + 461 X_3_1 + 528 X_3_2 + 138 X_3_4 + 576 X_3_5
  + 524 X_3_6 + 700 X_3_7 + 495 X_3_8 + 447 X_3_9 + 343 X_4_0 + 324 X_4_1 + 576 X_4_2 + 138 X_4_3
  + 451 X_4_5 + 571 X_4_6 + 581 X_4_7 + 406 X_4_8 + 384 X_4_9 + 468 X_5_0 + 202 X_5_1 + 984 X_5_2
  + 576 X_5_3 + 451 X_5_4 + 979 X_5_6 + 554 X_5_7 + 591 X_5_8 + 646 X_5_9 + 871 X_6_0 + 794 X_6_1
  + 5 X_6_2 + 524 X_6_3 + 571 X_6_4 + 979 X_6_5 + 761 X_6_7 + 504 X_6_8 + 405 X_6_9 + 857 X_7_0
  + 391 X_7_1 + 766 X_7_2 + 700 X_7_3 + 581 X_7_4 + 554 X_7_5 + 761 X_7_6 + 264 X_7_8 + 362 X_7_9
  + 736 X_8_0 + 389 X_8_1 + 509 X_8_2 + 495 X_8_3 + 406 X_8_4 + 591 X_8_5 + 504 X_8_6 + 264 X_8_7
  + 99 X_8_9 + 725 X_9_0 + 445 X_9_1 + 410 X_9_2 + 447 X_9_3 + 384 X_9_4 + 646 X_9_5 + 405 X_9_6
  + 362 X_9_7 + 99 X_9_8
  <= 1
 obj2:
  + 302 X_0_1 + 795 X_0_2 + 699 X_0_3 + 1042 X_0_4 + 643 X_0_5 + 520 X_0_6 + 234 X_0_7 + 540 X_0_8
  + 349 X_0_9 + 302 X_1_0 + 510 X_1_2 + 622 X_1_3 + 764 X_1_4 + 405 X_1_5 + 495 X_1_6 + 463 X_1_7
  + 286 X_1_8 + 392 X_1_9 + 795 X_2_0 + 510 X_2_1 + 603 X_2_3 + 255 X_2_4 + 562 X_2_5 + 632 X_2_6
  + 877 X_2_7 + 501 X_2_8 + 677 X_2_9 + 699 X_3_0 + 622 X_3_1 + 603 X_3_2 + 711 X_3_4 + 964 X_3_5
  + 188 X_3_6 + 600 X_3_7 + 850 X_3_8 + 362 X_3_9 + 1042 X_4_0 + 764 X_4_1 + 255 X_4_2 + 711 X_4_3
  + 784 X_4_5 + 797 X_4_6 + 1101 X_4_7 + 741 X_4_8 + 881 X_4_9 + 643 X_5_0 + 405 X_5_1 + 562 X_5_2
  + 964 X_5_3 + 784 X_5_4 + 875 X_5_6 + 850 X_5_7 + 120 X_5_8 + 795 X_5_9 + 520 X_6_0 + 495 X_6_1
  + 632 X_6_2 + 188 X_6_3 + 797 X_6_4 + 875 X_6_5 + 412 X_6_7 + 756 X_6_8 + 175 X_6_9 + 234 X_7_0
  + 463 X_7_1 + 877 X_7_2 + 600 X_7_3 + 1101 X_7_4 + 850 X_7_5 + 412 X_7_6 + 738 X_7_8 + 247 X_7_9
  + 540 X_8_0 + 286 X_8_1 + 501 X_8_2 + 850 X_8_3 + 741 X_8_4 + 120 X_8_5 + 756 X_8_6 + 738 X_8_7
  + 674 X_8_9 + 349 X_9_0 + 392 X_9_1 + 677 X_9_2 + 362 X_9_3 + 881 X_9_4 + 795 X_9_5 + 175 X_9_6
  + 247 X_9_7 + 674 X_9_8
  <= 2
 obj3:
  + 480 X_0_1 + 969 X_0_2 + 587 X_0_3 + 625 X_0_4 + 825 X_0_5 + 435 X_0_6 + 524 X_0_7 + 236 X_0_8
  + 887 X_0_9 + 480 X_1_0 + 749 X_1_2 + 423 X_1_3 + 148 X_1_4 + 389 X_1_5 + 621 X_1_6 + 527 X_1_7
  + 635 X_1_8 + 647 X_1_9 + 969 X_2_0 + 749 X_2_1 + 385 X_2_3 + 703 X_2_4 + 523 X_2_5 + 669 X_2_6
  + 477 X_2_7 + 924 X_2_8 + 103 X_2_9 + 587 X_3_0 + 423 X_3_1 + 385 X_3_2 + 442 X_3_4 + 421 X_3_5
  + 377 X_3_6 + 182 X_3_7 + 577 X_3_8 + 300 X_3_9 + 625 X_4_0 + 148 X_4_1 + 703 X_4_2 + 442 X_4_3
  + 263 X_4_5 + 714 X_4_6 + 584 X_4_7 + 767 X_4_8 + 600 X_4_9 + 825 X_5_0 + 389 X_5_1 + 523 X_5_2
  + 421 X_5_3 + 263 X_5_4 + 782 X_5_6 + 601 X_5_7 + 915 X_5_8 + 430 X_5_9 + 435 X_6_0 + 621 X_6_1
  + 669 X_6_2 + 377 X_6_3 + 714 X_6_4 + 782 X_6_5 + 204 X_6_7 + 280 X_6_8 + 621 X_6_9 + 524 X_7_0
  + 527 X_7_1 + 477 X_7_2 + 182 X_7_3 + 584 X_7_4 + 601 X_7_5 + 204 X_7_6 + 447 X_7_8 + 420 X_7_9
  + 236 X_8_0 + 635 X_8_1 + 924 X_8_2 + 577 X_8_3 + 767 X_8_4 + 915 X_8_5 + 280 X_8_6 + 447 X_8_7
  + 861 X_8_9 + 887 X_9_0 + 647 X_9_1 + 103 X_9_2 + 300 X_9_3 + 600 X_9_4 + 430 X_9_5 + 621 X_9_6
  + 420 X_9_7 + 861 X_9_8
  <= 3
Bounds
 1 <= U1 <= 9
 1 <= U2 <= 9
 1 <= U3 <= 9
 1 <= U4 <= 9
 1 <= U5 <= 9
 1 <= U6 <= 9
 1 <= U7 <= 9
 1 <= U8 <= 9
 1 <= U9 <= 9
Binary
 X_0_1
 X_0_2
 X_0_3
 X_0_4
 X_0_5
 X_0_6
 X_0_7
 X_0_8
 X_0_9
 X_1_0
 X_1_2
 X_1_3
 X_1_4
 X_1_5
 X_1_6
 X_1_7
 X_1_8
 X_1_9
 X_2_0
 X_2_1
 X_2_3
 X_2_4
 X_2_5
 X_2_6
 X_2_7
 X_2_8
 X_2_9
 X_3_0
 X_3_1
 X_3_2
 X_3_4
 X_3_5
 X_3_6
 X_3_7
 X_3_8
 X_3_9
 X_4_0
 X_4_1
 X_4_2
 X_4_3
 X_4_5
 X_4_6
 X_4_7
 X_4_8
 X_4_9
 X_5_0
 X_5_1
 X_5_2
 X_5_3
 X_5_4
 X_5_6
 X_5_7
 X_5_8
 X_5_9
 X_6_0
 X_6_1
 X_6_2
 X_6_3
 X_6_4
 X_6_5
 X_6_7
 X_6_8
 X_6_9
 X_7_0
 X_7_1
 X_7_2
 X_7_3
 X_7_4
 X_7_5
 X_7_6
 X_7_8
 X_7_9
 X_8_0
 X_8_1
 X_8_2
 X_8_3
 X_8_4
 X_8_5
 X_8_6
 X_8_7
 X_8_9
 X_9_0
 X_9_1
 X_9_2
 X_9_3
 X_9_4
 X_9_5
 X_9_6
 X_9_7
 X_9_8
End
